50
750 750
1 600 162
2 599 127
3 569 624
4 531 829
5 529 952
6 524 15
7 513 455
8 492 298
9 479 402
10 447 758
11 439 207
12 424 237
13 413 600
14 410 434
15 406 676
16 395 376
17 377 158
18 373 185
19 371 348
20 368 688
21 323 319
22 310 471
23 303 349
24 302 586
25 285 829
26 269 361
27 254 35
28 239 35
29 239 742
30 231 650
31 228 472
32 225 398
33 213 988
34 212 212
35 208 941
36 207 122
37 204 796
38 182 91
39 180 43
40 168 943
41 151 752
42 150 979
43 148 464
44 139 539
45 133 371
46 121 127
47 112 725
48 100 197
49 90 490
50 76 649
